c Standarized MaxSat Instance
c{
c "sha1sum": "efd3f3bd9af3792e1d744a63768cd9ced9fea7f3",
c "nvars": 41,
c "ncls": 1230,
c "nhards": 0,
c "nhard_len_stats":
c    { "min": 0, "max": 0, "ave": 0.00,
c      "stddev": 0.00 },
c "nsofts": 1230,
c "nsoft_len_stats":
c    { "min": 2, "max": 2, "ave": 2.00,
c      "stddev": 0.00 },
c "nsoft_wts": 10,
c "soft_wt_stats":
c    { "min": 1, "max": 10, "ave": 5.70,
c      "stddev": 2.80 }
c}
c------------------------------------------------------------
c
c File: keller5.clq
c Source Peter Shor (AT&T Bell Laboratories) shor@research.att.com
c Reference:
c J.C. Lagarias and P.W. Shor, "Keller's cube-packing conjecture is
c false in high dimensions, " Bull. AMS (New Series), Vol. 27, No. 2,
c 279-283, 1992.
c
c K. Corradi and S. Szabo, "A combinatorial appraoch for Keller's conjecture,"
c Period. Math. Hungar. Vol. 21, 91-100, 1990.
c
c Largest Clique: 27
c
p wcnf 41 1230 7013
9 1 2 0
9 -1 -2 0
4 1 4 0
4 -1 -4 0
8 1 6 0
8 -1 -6 0
8 1 7 0
8 -1 -7 0
10 1 8 0
10 -1 -8 0
2 1 9 0
2 -1 -9 0
4 1 11 0
4 -1 -11 0
8 1 13 0
8 -1 -13 0
3 1 14 0
3 -1 -14 0
6 1 15 0
6 -1 -15 0
5 1 16 0
5 -1 -16 0
7 1 17 0
7 -1 -17 0
4 1 18 0
4 -1 -18 0
6 1 20 0
6 -1 -20 0
10 1 21 0
10 -1 -21 0
10 1 22 0
10 -1 -22 0
7 1 23 0
7 -1 -23 0
8 1 24 0
8 -1 -24 0
2 1 25 0
2 -1 -25 0
7 1 26 0
7 -1 -26 0
1 1 27 0
1 -1 -27 0
3 1 28 0
3 -1 -28 0
2 1 29 0
2 -1 -29 0
9 1 30 0
9 -1 -30 0
2 1 31 0
2 -1 -31 0
5 1 32 0
5 -1 -32 0
2 1 34 0
2 -1 -34 0
2 1 36 0
2 -1 -36 0
10 1 37 0
10 -1 -37 0
3 1 38 0
3 -1 -38 0
6 1 39 0
6 -1 -39 0
9 1 40 0
9 -1 -40 0
7 1 41 0
7 -1 -41 0
3 2 3 0
3 -2 -3 0
7 2 5 0
7 -2 -5 0
6 2 6 0
6 -2 -6 0
5 2 7 0
5 -2 -7 0
10 2 8 0
10 -2 -8 0
3 2 10 0
3 -2 -10 0
8 2 12 0
8 -2 -12 0
6 2 13 0
6 -2 -13 0
8 2 14 0
8 -2 -14 0
5 2 15 0
5 -2 -15 0
9 2 16 0
9 -2 -16 0
3 2 17 0
3 -2 -17 0
4 2 18 0
4 -2 -18 0
9 2 20 0
9 -2 -20 0
10 2 21 0
10 -2 -21 0
1 2 22 0
1 -2 -22 0
10 2 23 0
10 -2 -23 0
6 2 24 0
6 -2 -24 0
1 2 25 0
1 -2 -25 0
2 2 26 0
2 -2 -26 0
7 2 27 0
7 -2 -27 0
9 2 28 0
9 -2 -28 0
4 2 29 0
4 -2 -29 0
1 2 30 0
1 -2 -30 0
1 2 31 0
1 -2 -31 0
5 2 32 0
5 -2 -32 0
1 2 33 0
1 -2 -33 0
3 2 35 0
3 -2 -35 0
10 2 37 0
10 -2 -37 0
10 2 38 0
10 -2 -38 0
9 2 39 0
9 -2 -39 0
3 2 40 0
3 -2 -40 0
6 3 4 0
6 -3 -4 0
4 3 7 0
4 -3 -7 0
8 3 9 0
8 -3 -9 0
6 3 10 0
6 -3 -10 0
7 3 11 0
7 -3 -11 0
6 3 13 0
6 -3 -13 0
1 3 14 0
1 -3 -14 0
5 3 16 0
5 -3 -16 0
10 3 18 0
10 -3 -18 0
10 3 19 0
10 -3 -19 0
8 3 20 0
8 -3 -20 0
3 3 21 0
3 -3 -21 0
8 3 22 0
8 -3 -22 0
7 3 23 0
7 -3 -23 0
4 3 24 0
4 -3 -24 0
7 3 25 0
7 -3 -25 0
2 3 26 0
2 -3 -26 0
5 3 27 0
5 -3 -27 0
9 3 28 0
9 -3 -28 0
9 3 29 0
9 -3 -29 0
4 3 30 0
4 -3 -30 0
3 3 31 0
3 -3 -31 0
9 3 32 0
9 -3 -32 0
4 3 33 0
4 -3 -33 0
7 3 34 0
7 -3 -34 0
10 3 36 0
10 -3 -36 0
6 3 38 0
6 -3 -38 0
7 3 39 0
7 -3 -39 0
9 3 40 0
9 -3 -40 0
5 3 41 0
5 -3 -41 0
10 4 5 0
10 -4 -5 0
4 4 8 0
4 -4 -8 0
9 4 9 0
9 -4 -9 0
7 4 10 0
7 -4 -10 0
10 4 12 0
10 -4 -12 0
5 4 14 0
5 -4 -14 0
3 4 17 0
3 -4 -17 0
10 4 18 0
10 -4 -18 0
10 4 19 0
10 -4 -19 0
2 4 20 0
2 -4 -20 0
9 4 21 0
9 -4 -21 0
7 4 22 0
7 -4 -22 0
5 4 23 0
5 -4 -23 0
7 4 24 0
7 -4 -24 0
3 4 25 0
3 -4 -25 0
8 4 26 0
8 -4 -26 0
4 4 27 0
4 -4 -27 0
5 4 28 0
5 -4 -28 0
3 4 29 0
3 -4 -29 0
2 4 30 0
2 -4 -30 0
3 4 31 0
3 -4 -31 0
6 4 32 0
6 -4 -32 0
5 4 33 0
5 -4 -33 0
2 4 37 0
2 -4 -37 0
10 4 39 0
10 -4 -39 0
2 4 40 0
2 -4 -40 0
2 4 41 0
2 -4 -41 0
5 5 7 0
5 -5 -7 0
8 5 8 0
8 -5 -8 0
10 5 9 0
10 -5 -9 0
10 5 10 0
10 -5 -10 0
7 5 11 0
7 -5 -11 0
4 5 13 0
4 -5 -13 0
8 5 16 0
8 -5 -16 0
4 5 18 0
4 -5 -18 0
3 5 20 0
3 -5 -20 0
3 5 21 0
3 -5 -21 0
6 5 22 0
6 -5 -22 0
3 5 23 0
3 -5 -23 0
2 5 24 0
2 -5 -24 0
8 5 25 0
8 -5 -25 0
2 5 26 0
2 -5 -26 0
8 5 27 0
8 -5 -27 0
2 5 28 0
2 -5 -28 0
8 5 29 0
8 -5 -29 0
1 5 30 0
1 -5 -30 0
10 5 31 0
10 -5 -31 0
1 5 32 0
1 -5 -32 0
6 5 33 0
6 -5 -33 0
2 5 34 0
2 -5 -34 0
3 5 36 0
3 -5 -36 0
8 5 38 0
8 -5 -38 0
8 5 39 0
8 -5 -39 0
7 5 40 0
7 -5 -40 0
10 5 41 0
10 -5 -41 0
7 6 8 0
7 -6 -8 0
8 6 10 0
8 -6 -10 0
1 6 11 0
1 -6 -11 0
2 6 14 0
2 -6 -14 0
6 6 17 0
6 -6 -17 0
1 6 18 0
1 -6 -18 0
1 6 19 0
1 -6 -19 0
3 6 20 0
3 -6 -20 0
5 6 21 0
5 -6 -21 0
9 6 22 0
9 -6 -22 0
6 6 23 0
6 -6 -23 0
8 6 24 0
8 -6 -24 0
1 6 25 0
1 -6 -25 0
2 6 26 0
2 -6 -26 0
10 6 27 0
10 -6 -27 0
3 6 28 0
3 -6 -28 0
9 6 29 0
9 -6 -29 0
2 6 30 0
2 -6 -30 0
10 6 31 0
10 -6 -31 0
1 6 32 0
1 -6 -32 0
9 6 33 0
9 -6 -33 0
1 6 34 0
1 -6 -34 0
1 6 39 0
1 -6 -39 0
10 6 41 0
10 -6 -41 0
6 7 9 0
6 -7 -9 0
2 7 10 0
2 -7 -10 0
2 7 11 0
2 -7 -11 0
4 7 12 0
4 -7 -12 0
10 7 13 0
10 -7 -13 0
9 7 14 0
9 -7 -14 0
4 7 15 0
4 -7 -15 0
6 7 20 0
6 -7 -20 0
6 7 21 0
6 -7 -21 0
5 7 22 0
5 -7 -22 0
7 7 23 0
7 -7 -23 0
1 7 24 0
1 -7 -24 0
6 7 25 0
6 -7 -25 0
8 7 26 0
8 -7 -26 0
4 7 27 0
4 -7 -27 0
10 7 28 0
10 -7 -28 0
6 7 29 0
6 -7 -29 0
9 7 30 0
9 -7 -30 0
8 7 31 0
8 -7 -31 0
7 7 32 0
7 -7 -32 0
1 7 33 0
1 -7 -33 0
8 7 34 0
8 -7 -34 0
9 7 35 0
9 -7 -35 0
10 7 37 0
10 -7 -37 0
9 7 40 0
9 -7 -40 0
9 7 41 0
9 -7 -41 0
10 8 9 0
10 -8 -9 0
8 8 10 0
8 -8 -10 0
10 8 11 0
10 -8 -11 0
10 8 12 0
10 -8 -12 0
7 8 13 0
7 -8 -13 0
5 8 15 0
5 -8 -15 0
2 8 19 0
2 -8 -19 0
9 8 20 0
9 -8 -20 0
9 8 21 0
9 -8 -21 0
1 8 22 0
1 -8 -22 0
7 8 23 0
7 -8 -23 0
3 8 24 0
3 -8 -24 0
7 8 25 0
7 -8 -25 0
3 8 26 0
3 -8 -26 0
8 8 27 0
8 -8 -27 0
4 8 28 0
4 -8 -28 0
4 8 29 0
4 -8 -29 0
3 8 30 0
3 -8 -30 0
1 8 31 0
1 -8 -31 0
7 8 32 0
7 -8 -32 0
3 8 33 0
3 -8 -33 0
7 8 34 0
7 -8 -34 0
6 8 35 0
6 -8 -35 0
10 8 36 0
10 -8 -36 0
3 8 37 0
3 -8 -37 0
6 8 38 0
6 -8 -38 0
8 8 41 0
8 -8 -41 0
2 9 10 0
2 -9 -10 0
5 9 12 0
5 -9 -12 0
6 9 13 0
6 -9 -13 0
10 9 14 0
10 -9 -14 0
5 9 20 0
5 -9 -20 0
4 9 21 0
4 -9 -21 0
9 9 22 0
9 -9 -22 0
5 9 23 0
5 -9 -23 0
1 9 24 0
1 -9 -24 0
4 9 25 0
4 -9 -25 0
6 9 26 0
6 -9 -26 0
9 9 27 0
9 -9 -27 0
3 9 28 0
3 -9 -28 0
7 9 29 0
7 -9 -29 0
5 9 30 0
5 -9 -30 0
5 9 31 0
5 -9 -31 0
4 9 32 0
4 -9 -32 0
8 9 33 0
8 -9 -33 0
2 9 34 0
2 -9 -34 0
7 9 35 0
7 -9 -35 0
1 9 36 0
1 -9 -36 0
5 9 37 0
5 -9 -37 0
7 9 38 0
7 -9 -38 0
7 9 39 0
7 -9 -39 0
7 9 40 0
7 -9 -40 0
4 10 11 0
4 -10 -11 0
2 10 13 0
2 -10 -13 0
7 10 15 0
7 -10 -15 0
7 10 16 0
7 -10 -16 0
8 10 17 0
8 -10 -17 0
4 10 18 0
4 -10 -18 0
8 10 19 0
8 -10 -19 0
3 10 20 0
3 -10 -20 0
10 10 21 0
10 -10 -21 0
7 10 23 0
7 -10 -23 0
7 10 24 0
7 -10 -24 0
3 10 25 0
3 -10 -25 0
6 10 26 0
6 -10 -26 0
1 10 27 0
1 -10 -27 0
3 10 28 0
3 -10 -28 0
9 10 29 0
9 -10 -29 0
7 10 31 0
7 -10 -31 0
1 10 32 0
1 -10 -32 0
2 10 33 0
2 -10 -33 0
4 10 34 0
4 -10 -34 0
6 10 35 0
6 -10 -35 0
6 10 36 0
6 -10 -36 0
7 10 37 0
7 -10 -37 0
3 10 38 0
3 -10 -38 0
8 10 39 0
8 -10 -39 0
3 10 40 0
3 -10 -40 0
4 10 41 0
4 -10 -41 0
2 11 12 0
2 -11 -12 0
10 11 14 0
10 -11 -14 0
1 11 15 0
1 -11 -15 0
9 11 16 0
9 -11 -16 0
4 11 17 0
4 -11 -17 0
2 11 21 0
2 -11 -21 0
5 11 23 0
5 -11 -23 0
10 11 24 0
10 -11 -24 0
10 11 25 0
10 -11 -25 0
8 11 26 0
8 -11 -26 0
7 11 27 0
7 -11 -27 0
2 11 28 0
2 -11 -28 0
7 11 29 0
7 -11 -29 0
4 11 30 0
4 -11 -30 0
8 11 33 0
8 -11 -33 0
10 11 34 0
10 -11 -34 0
10 11 35 0
10 -11 -35 0
9 11 36 0
9 -11 -36 0
3 11 37 0
3 -11 -37 0
8 11 38 0
8 -11 -38 0
6 11 39 0
6 -11 -39 0
3 11 40 0
3 -11 -40 0
10 11 41 0
10 -11 -41 0
10 12 16 0
10 -12 -16 0
9 12 18 0
9 -12 -18 0
5 12 19 0
5 -12 -19 0
6 12 20 0
6 -12 -20 0
2 12 21 0
2 -12 -21 0
3 12 24 0
3 -12 -24 0
9 12 25 0
9 -12 -25 0
5 12 28 0
5 -12 -28 0
5 12 30 0
5 -12 -30 0
9 12 31 0
9 -12 -31 0
5 12 32 0
5 -12 -32 0
3 12 33 0
3 -12 -33 0
2 12 34 0
2 -12 -34 0
7 12 35 0
7 -12 -35 0
8 12 36 0
8 -12 -36 0
2 12 37 0
2 -12 -37 0
7 12 38 0
7 -12 -38 0
5 12 39 0
5 -12 -39 0
9 12 40 0
9 -12 -40 0
8 12 41 0
8 -12 -41 0
2 13 14 0
2 -13 -14 0
3 13 16 0
3 -13 -16 0
5 13 18 0
5 -13 -18 0
2 13 19 0
2 -13 -19 0
2 13 20 0
2 -13 -20 0
4 13 23 0
4 -13 -23 0
4 13 24 0
4 -13 -24 0
10 13 25 0
10 -13 -25 0
10 13 26 0
10 -13 -26 0
7 13 28 0
7 -13 -28 0
9 13 30 0
9 -13 -30 0
9 13 31 0
9 -13 -31 0
5 13 32 0
5 -13 -32 0
4 13 33 0
4 -13 -33 0
4 13 34 0
4 -13 -34 0
7 13 35 0
7 -13 -35 0
7 13 36 0
7 -13 -36 0
3 13 37 0
3 -13 -37 0
2 13 38 0
2 -13 -38 0
1 13 39 0
1 -13 -39 0
2 13 40 0
2 -13 -40 0
7 13 41 0
7 -13 -41 0
4 14 16 0
4 -14 -16 0
3 14 17 0
3 -14 -17 0
4 14 18 0
4 -14 -18 0
1 14 19 0
1 -14 -19 0
5 14 20 0
5 -14 -20 0
10 14 21 0
10 -14 -21 0
6 14 22 0
6 -14 -22 0
3 14 23 0
3 -14 -23 0
7 14 24 0
7 -14 -24 0
8 14 25 0
8 -14 -25 0
5 14 28 0
5 -14 -28 0
2 14 29 0
2 -14 -29 0
9 14 31 0
9 -14 -31 0
7 14 32 0
7 -14 -32 0
6 14 33 0
6 -14 -33 0
3 14 34 0
3 -14 -34 0
6 14 35 0
6 -14 -35 0
5 14 36 0
5 -14 -36 0
9 14 37 0
9 -14 -37 0
4 14 38 0
4 -14 -38 0
3 14 39 0
3 -14 -39 0
4 14 40 0
4 -14 -40 0
8 14 41 0
8 -14 -41 0
7 15 17 0
7 -15 -17 0
10 15 19 0
10 -15 -19 0
4 15 20 0
4 -15 -20 0
9 15 21 0
9 -15 -21 0
2 15 22 0
2 -15 -22 0
5 15 24 0
5 -15 -24 0
1 15 25 0
1 -15 -25 0
8 15 29 0
8 -15 -29 0
8 15 30 0
8 -15 -30 0
3 15 32 0
3 -15 -32 0
2 15 33 0
2 -15 -33 0
9 15 34 0
9 -15 -34 0
8 15 35 0
8 -15 -35 0
1 15 36 0
1 -15 -36 0
5 15 37 0
5 -15 -37 0
10 15 38 0
10 -15 -38 0
8 15 39 0
8 -15 -39 0
3 15 40 0
3 -15 -40 0
5 15 41 0
5 -15 -41 0
9 16 18 0
9 -16 -18 0
1 16 20 0
1 -16 -20 0
1 16 21 0
1 -16 -21 0
4 16 22 0
4 -16 -22 0
4 16 23 0
4 -16 -23 0
7 16 26 0
7 -16 -26 0
9 16 30 0
9 -16 -30 0
2 16 31 0
2 -16 -31 0
1 16 33 0
1 -16 -33 0
1 16 34 0
1 -16 -34 0
5 16 35 0
5 -16 -35 0
8 16 36 0
8 -16 -36 0
7 16 37 0
7 -16 -37 0
5 16 38 0
5 -16 -38 0
2 16 39 0
2 -16 -39 0
6 16 40 0
6 -16 -40 0
6 16 41 0
6 -16 -41 0
6 17 18 0
6 -17 -18 0
6 17 19 0
6 -17 -19 0
4 17 20 0
4 -17 -20 0
4 17 21 0
4 -17 -21 0
9 17 22 0
9 -17 -22 0
5 17 23 0
5 -17 -23 0
2 17 24 0
2 -17 -24 0
7 17 26 0
7 -17 -26 0
6 17 27 0
6 -17 -27 0
7 17 31 0
7 -17 -31 0
6 17 33 0
6 -17 -33 0
3 17 34 0
3 -17 -34 0
9 17 35 0
9 -17 -35 0
1 17 36 0
1 -17 -36 0
1 17 37 0
1 -17 -37 0
10 17 38 0
10 -17 -38 0
2 17 39 0
2 -17 -39 0
5 17 40 0
5 -17 -40 0
3 17 41 0
3 -17 -41 0
9 18 19 0
9 -18 -19 0
3 18 22 0
3 -18 -22 0
4 18 23 0
4 -18 -23 0
9 18 24 0
9 -18 -24 0
4 18 25 0
4 -18 -25 0
9 18 26 0
9 -18 -26 0
7 18 28 0
7 -18 -28 0
1 18 29 0
1 -18 -29 0
3 18 30 0
3 -18 -30 0
8 18 33 0
8 -18 -33 0
7 18 34 0
7 -18 -34 0
9 18 35 0
9 -18 -35 0
4 18 36 0
4 -18 -36 0
3 18 37 0
3 -18 -37 0
2 18 38 0
2 -18 -38 0
7 18 39 0
7 -18 -39 0
2 18 40 0
2 -18 -40 0
7 18 41 0
7 -18 -41 0
8 19 20 0
8 -19 -20 0
8 19 21 0
8 -19 -21 0
3 19 23 0
3 -19 -23 0
5 19 24 0
5 -19 -24 0
4 19 25 0
4 -19 -25 0
5 19 26 0
5 -19 -26 0
3 19 27 0
3 -19 -27 0
4 19 29 0
4 -19 -29 0
6 19 31 0
6 -19 -31 0
2 19 33 0
2 -19 -33 0
6 19 34 0
6 -19 -34 0
1 19 35 0
1 -19 -35 0
4 19 36 0
4 -19 -36 0
4 19 37 0
4 -19 -37 0
4 19 38 0
4 -19 -38 0
8 19 39 0
8 -19 -39 0
3 19 40 0
3 -19 -40 0
7 19 41 0
7 -19 -41 0
6 20 22 0
6 -20 -22 0
10 20 23 0
10 -20 -23 0
7 20 26 0
7 -20 -26 0
9 20 27 0
9 -20 -27 0
7 20 28 0
7 -20 -28 0
4 20 29 0
4 -20 -29 0
7 20 30 0
7 -20 -30 0
1 20 32 0
1 -20 -32 0
6 20 33 0
6 -20 -33 0
9 20 35 0
9 -20 -35 0
7 20 37 0
7 -20 -37 0
7 20 38 0
7 -20 -38 0
6 20 39 0
6 -20 -39 0
5 20 40 0
5 -20 -40 0
4 21 23 0
4 -21 -23 0
8 21 26 0
8 -21 -26 0
9 21 27 0
9 -21 -27 0
7 21 28 0
7 -21 -28 0
2 21 29 0
2 -21 -29 0
1 21 30 0
1 -21 -30 0
1 21 31 0
1 -21 -31 0
7 21 36 0
7 -21 -36 0
2 21 37 0
2 -21 -37 0
7 21 38 0
7 -21 -38 0
8 21 39 0
8 -21 -39 0
6 21 40 0
6 -21 -40 0
1 22 24 0
1 -22 -24 0
1 22 25 0
1 -22 -25 0
4 22 26 0
4 -22 -26 0
3 22 27 0
3 -22 -27 0
7 22 28 0
7 -22 -28 0
9 22 29 0
9 -22 -29 0
2 22 30 0
2 -22 -30 0
4 22 32 0
4 -22 -32 0
7 22 33 0
7 -22 -33 0
9 22 34 0
9 -22 -34 0
7 22 35 0
7 -22 -35 0
4 22 36 0
4 -22 -36 0
9 22 37 0
9 -22 -37 0
2 22 38 0
2 -22 -38 0
2 22 39 0
2 -22 -39 0
6 22 40 0
6 -22 -40 0
9 23 25 0
9 -23 -25 0
7 23 26 0
7 -23 -26 0
10 23 28 0
10 -23 -28 0
2 23 29 0
2 -23 -29 0
4 23 30 0
4 -23 -30 0
8 23 31 0
8 -23 -31 0
9 23 32 0
9 -23 -32 0
6 23 33 0
6 -23 -33 0
8 23 34 0
8 -23 -34 0
10 23 36 0
10 -23 -36 0
3 23 39 0
3 -23 -39 0
10 23 40 0
10 -23 -40 0
6 23 41 0
6 -23 -41 0
10 24 26 0
10 -24 -26 0
5 24 27 0
5 -24 -27 0
6 24 29 0
6 -24 -29 0
10 24 30 0
10 -24 -30 0
8 24 31 0
8 -24 -31 0
9 24 32 0
9 -24 -32 0
6 24 33 0
6 -24 -33 0
7 24 35 0
7 -24 -35 0
10 24 40 0
10 -24 -40 0
10 24 41 0
10 -24 -41 0
4 25 26 0
4 -25 -26 0
9 25 27 0
9 -25 -27 0
6 25 30 0
6 -25 -30 0
7 25 31 0
7 -25 -31 0
8 25 32 0
8 -25 -32 0
8 25 35 0
8 -25 -35 0
8 25 36 0
8 -25 -36 0
3 25 37 0
3 -25 -37 0
7 25 40 0
7 -25 -40 0
5 25 41 0
5 -25 -41 0
2 26 28 0
2 -26 -28 0
8 26 29 0
8 -26 -29 0
9 26 31 0
9 -26 -31 0
9 26 32 0
9 -26 -32 0
7 26 33 0
7 -26 -33 0
5 26 34 0
5 -26 -34 0
7 26 36 0
7 -26 -36 0
6 26 37 0
6 -26 -37 0
7 26 38 0
7 -26 -38 0
6 26 39 0
6 -26 -39 0
2 26 40 0
2 -26 -40 0
6 26 41 0
6 -26 -41 0
1 27 29 0
1 -27 -29 0
8 27 30 0
8 -27 -30 0
6 27 32 0
6 -27 -32 0
9 27 33 0
9 -27 -33 0
6 27 34 0
6 -27 -34 0
2 27 36 0
2 -27 -36 0
5 27 38 0
5 -27 -38 0
6 27 39 0
6 -27 -39 0
1 27 41 0
1 -27 -41 0
9 28 30 0
9 -28 -30 0
4 28 31 0
4 -28 -31 0
7 28 33 0
7 -28 -33 0
5 28 34 0
5 -28 -34 0
2 28 35 0
2 -28 -35 0
5 28 37 0
5 -28 -37 0
3 28 40 0
3 -28 -40 0
5 29 31 0
5 -29 -31 0
1 29 33 0
1 -29 -33 0
8 29 34 0
8 -29 -34 0
6 29 35 0
6 -29 -35 0
9 29 36 0
9 -29 -36 0
6 29 37 0
6 -29 -37 0
5 29 38 0
5 -29 -38 0
5 30 31 0
5 -30 -31 0
10 30 32 0
10 -30 -32 0
1 30 34 0
1 -30 -34 0
1 30 35 0
1 -30 -35 0
7 30 36 0
7 -30 -36 0
6 30 38 0
6 -30 -38 0
3 30 39 0
3 -30 -39 0
3 30 40 0
3 -30 -40 0
7 30 41 0
7 -30 -41 0
10 31 35 0
10 -31 -35 0
8 31 36 0
8 -31 -36 0
5 31 37 0
5 -31 -37 0
5 31 39 0
5 -31 -39 0
9 31 40 0
9 -31 -40 0
10 31 41 0
10 -31 -41 0
10 32 33 0
10 -32 -33 0
9 32 34 0
9 -32 -34 0
8 32 35 0
8 -32 -35 0
4 32 36 0
4 -32 -36 0
6 32 38 0
6 -32 -38 0
3 32 39 0
3 -32 -39 0
5 33 34 0
5 -33 -34 0
10 33 37 0
10 -33 -37 0
5 33 38 0
5 -33 -38 0
9 33 39 0
9 -33 -39 0
10 33 40 0
10 -33 -40 0
2 34 35 0
2 -34 -35 0
5 34 37 0
5 -34 -37 0
8 34 38 0
8 -34 -38 0
8 34 39 0
8 -34 -39 0
10 34 40 0
10 -34 -40 0
3 34 41 0
3 -34 -41 0
8 35 36 0
8 -35 -36 0
10 35 38 0
10 -35 -38 0
4 35 39 0
4 -35 -39 0
5 35 40 0
5 -35 -40 0
6 35 41 0
6 -35 -41 0
6 36 37 0
6 -36 -37 0
7 36 39 0
7 -36 -39 0
2 36 40 0
2 -36 -40 0
5 36 41 0
5 -36 -41 0
4 37 39 0
4 -37 -39 0
7 37 41 0
7 -37 -41 0
10 38 41 0
10 -38 -41 0
3 39 40 0
3 -39 -40 0
7 39 41 0
7 -39 -41 0
9 40 41 0
9 -40 -41 0
